c uprop, v00.0, 
c reading from data/prog869.c.cnf
c done reading: 0.002556
p cnf 143 588
-50 -68 0
50 68 0
-45 68 0
45 -68 0
50 -62 0
-60 -62 0
-50 60 62 0
-50 -55 60 0
50 -55 -60 0
50 55 60 0
-50 55 -60 0
-51 62 0
-48 -51 0
48 51 -62 0
-47 48 -62 0
-47 -48 62 0
47 48 62 0
47 -48 -62 0
-46 51 0
-43 -46 0
43 46 -51 0
-41 43 -51 0
-41 -43 51 0
41 43 51 0
41 -43 -51 0
46 -66 0
-64 -66 0
-46 64 66 0
-46 64 -70 0
46 -64 -70 0
46 64 70 0
-46 -64 70 0
66 -71 0
-57 -71 0
57 -66 71 0
57 -66 -72 0
-57 66 -72 0
57 66 72 0
-57 -66 72 0
71 -73 0
-53 -73 0
53 -71 73 0
53 -71 -74 0
-53 71 -74 0
53 71 74 0
-53 -71 74 0
68 -75 0
-68 75 0
-60 -68 76 0
60 68 -76 0
60 -76 0
68 -76 0
60 -76 -77 0
68 -76 -77 0
-76 -77 0
-60 76 77 0
-68 76 77 0
60 68 -77 0
-48 -60 78 0
-48 -76 78 0
-60 -76 78 0
48 60 -78 0
48 76 -78 0
60 76 -78 0
48 -78 -79 0
60 -78 -79 0
76 -78 -79 0
-48 78 79 0
-60 78 79 0
-76 78 79 0
-48 -60 -76 79 0
48 60 76 -79 0
-43 -48 80 0
-43 -78 80 0
-48 -78 80 0
43 48 -80 0
43 78 -80 0
48 78 -80 0
43 -80 -81 0
48 -80 -81 0
78 -80 -81 0
-43 80 81 0
-48 80 81 0
-78 80 81 0
-43 -48 -78 81 0
43 48 78 -81 0
-43 -64 82 0
-64 -80 82 0
-43 -80 82 0
43 64 -82 0
64 80 -82 0
43 80 -82 0
-40 64 -82 0
-40 43 -82 0
-40 80 -82 0
40 -64 82 0
40 -43 82 0
40 -80 82 0
40 -43 -64 -80 0
-40 43 64 80 0
39 -57 -64 0
39 -57 -82 0
39 -64 -82 0
-39 57 64 0
-39 57 82 0
-39 64 82 0
-38 -39 57 0
-38 -39 64 0
-38 -39 82 0
38 39 -57 0
38 39 -64 0
38 39 -82 0
38 -57 -64 -82 0
-38 57 64 82 0
37 -53 -57 0
37 -39 -53 0
37 -39 -57 0
-37 53 57 0
-37 39 53 0
-37 39 57 0
-36 -37 53 0
-36 -37 57 0
-36 -37 39 0
36 37 -53 0
36 37 -57 0
36 37 -39 0
36 -39 -53 -57 0
-36 39 53 57 0
53 -67 0
37 -67 0
-37 -53 67 0
-37 -53 -59 0
37 53 -59 0
37 -53 59 0
-37 53 59 0
-42 77 0
42 -77 0
63 -68 -79 0
-63 68 79 0
-63 79 0
-63 68 0
-56 -63 79 0
-56 -63 68 0
-56 -63 0
56 63 -79 0
56 63 -68 0
-56 68 79 0
52 -60 -81 0
52 -63 -81 0
52 -60 -63 0
-52 60 81 0
-52 63 81 0
-52 60 63 0
-35 -52 81 0
-35 -52 60 0
-35 -52 63 0
35 52 -81 0
35 52 -60 0
35 52 -63 0
35 -60 -63 -81 0
-35 60 63 81 0
34 -40 -48 0
34 -40 -52 0
34 -48 -52 0
-34 40 48 0
-34 40 52 0
-34 48 52 0
-33 -34 40 0
-33 -34 48 0
-33 -34 52 0
33 34 -40 0
33 34 -48 0
33 34 -52 0
33 -40 -48 -52 0
-33 40 48 52 0
32 -38 -43 0
32 -34 -38 0
32 -34 -43 0
-32 38 43 0
-32 34 38 0
-32 34 43 0
-31 -32 38 0
-31 -32 43 0
-31 -32 34 0
31 32 -38 0
31 32 -43 0
31 32 -34 0
31 -34 -38 -43 0
-31 34 38 43 0
30 -36 -64 0
30 -32 -36 0
30 -32 -64 0
-30 36 64 0
-30 32 36 0
-30 32 64 0
-29 -30 36 0
-29 -30 64 0
-29 -30 32 0
29 30 -36 0
29 30 -64 0
29 30 -32 0
29 -32 -36 -64 0
-29 32 36 64 0
28 -57 -59 0
28 -30 -59 0
28 -30 -57 0
-28 57 59 0
-28 30 59 0
-28 30 57 0
-27 -28 59 0
-27 -28 57 0
-27 -28 30 0
27 28 -59 0
27 28 -57 0
27 28 -30 0
27 -30 -57 -59 0
-27 30 57 59 0
26 -53 -67 0
26 -28 -67 0
26 -28 -53 0
-26 53 67 0
-26 28 67 0
-26 28 53 0
-25 -26 67 0
-25 -26 53 0
-25 -26 28 0
25 26 -67 0
25 26 -53 0
25 26 -28 0
25 -28 -53 -67 0
-25 28 53 67 0
-24 35 0
24 -35 0
23 -33 -68 0
-23 33 68 0
-23 33 0
-23 68 0
-22 -23 33 0
-22 -23 68 0
-22 -23 0
22 23 -33 0
22 23 -68 0
-22 33 68 0
21 -31 -60 0
21 -23 -31 0
21 -23 -60 0
-21 31 60 0
-21 23 31 0
-21 23 60 0
-20 -21 31 0
-20 -21 60 0
-20 -21 23 0
20 21 -31 0
20 21 -60 0
20 21 -23 0
20 -23 -31 -60 0
-20 23 31 60 0
19 -29 -48 0
19 -21 -29 0
19 -21 -48 0
-19 29 48 0
-19 21 29 0
-19 21 48 0
19 -29 0
19 -48 0
19 -21 0
-21 -29 -48 0
18 -27 -43 0
18 -19 -27 0
18 -19 -43 0
-18 27 43 0
-18 19 27 0
-18 19 43 0
18 -27 0
18 -43 0
18 -19 0
-19 -27 -43 0
17 -25 -64 0
17 -18 -25 0
17 -18 -64 0
-17 25 64 0
-17 18 25 0
-17 18 64 0
17 -25 0
17 -64 0
17 -18 0
-18 -25 -64 0
-26 -57 83 0
-17 -26 83 0
-17 -57 83 0
26 57 -83 0
17 26 -83 0
17 57 -83 0
-26 83 0
-57 83 0
-17 83 0
-17 -26 -57 0
-53 -83 0
-53 83 0
53 -83 0
-75 -84 0
75 84 0
75 -85 0
-75 85 0
84 -86 0
-42 -86 0
42 -84 86 0
42 -84 -87 0
-42 84 -87 0
42 84 87 0
-42 -84 87 0
86 -88 0
-56 -88 0
56 -86 88 0
56 -86 -89 0
-56 86 -89 0
56 86 89 0
-56 -86 89 0
88 -90 0
-24 -90 0
24 -88 90 0
24 -88 -91 0
-24 88 -91 0
24 88 91 0
-24 -88 91 0
90 -92 0
-22 -92 0
22 -90 92 0
22 -90 -93 0
-22 90 -93 0
22 90 93 0
-22 -90 93 0
92 -94 0
-20 -94 0
20 -92 94 0
20 -92 -95 0
-20 92 -95 0
20 92 95 0
-20 -92 95 0
94 -96 0
-94 96 0
-94 -97 0
94 97 0
96 -98 0
-96 98 0
-96 -99 0
96 99 0
98 -100 0
-98 100 0
-98 -101 0
98 101 0
100 -102 0
-100 102 0
-100 -103 0
100 103 0
102 -104 0
-102 104 0
-102 -105 0
102 105 0
104 -106 0
-104 106 0
-104 -107 0
104 107 0
-108 -110 0
-110 -111 0
108 110 111 0
108 111 -113 0
-108 -111 -113 0
-108 111 113 0
108 -111 113 0
110 -114 0
-114 -115 0
-110 114 115 0
-110 115 -117 0
110 -115 -117 0
110 115 117 0
-110 -115 117 0
114 -118 0
-118 -119 0
-114 118 119 0
-114 119 -121 0
114 -119 -121 0
114 119 121 0
-114 -119 121 0
118 -122 0
-122 -123 0
-118 122 123 0
-118 123 -124 0
118 -123 -124 0
118 123 124 0
-118 -123 124 0
122 -125 0
-125 -126 0
-122 125 126 0
-122 126 -128 0
122 -126 -128 0
122 126 128 0
-122 -126 128 0
-69 125 0
-69 -129 0
69 -125 129 0
-61 -125 129 0
-61 125 -129 0
61 125 129 0
61 -125 -129 0
-49 69 0
-49 -130 0
49 -69 130 0
-44 -69 130 0
-44 69 -130 0
44 69 130 0
44 -69 -130 0
-65 119 0
-65 108 0
65 -108 -119 0
-58 -108 -119 0
-58 108 119 0
58 108 -119 0
58 -108 119 0
54 -111 -123 0
54 -65 -123 0
54 -65 -111 0
-54 111 123 0
-54 65 123 0
-54 65 111 0
-54 -109 123 0
-54 -109 111 0
-54 65 -109 0
54 109 -123 0
54 109 -111 0
54 -65 109 0
-65 109 -111 -123 0
65 -109 111 123 0
112 -115 -126 0
-54 112 -126 0
-54 112 -115 0
-112 115 126 0
54 -112 126 0
54 -112 115 0
-112 -116 126 0
-112 115 -116 0
54 -112 -116 0
112 116 -126 0
112 -115 116 0
-54 112 116 0
-54 -115 116 -126 0
54 115 -116 126 0
-119 120 -129 0
-112 120 -129 0
-112 -119 120 0
119 -120 129 0
112 -120 129 0
112 119 -120 0
120 -129 0
-119 120 0
-112 120 0
-112 -119 -129 0
-123 127 -130 0
-120 127 -130 0
-120 -123 127 0
123 -127 130 0
120 -127 130 0
120 123 -127 0
127 -130 0
-123 127 0
-120 127 0
-120 -123 -130 0
126 -131 0
127 -131 0
-126 -127 131 0
-126 127 0
126 -127 0
129 -132 0
131 -132 0
-129 -131 132 0
-129 131 0
129 -131 0
-130 -132 0
-130 132 0
130 -132 0
-108 -133 0
-111 -133 0
108 111 133 0
108 111 -134 0
-108 -111 -134 0
-108 111 134 0
108 -111 134 0
133 -135 0
-115 -135 0
115 -133 135 0
115 -133 -136 0
-115 133 -136 0
115 133 136 0
-115 -133 136 0
135 -137 0
-58 -137 0
58 -135 137 0
58 -135 -138 0
-58 135 -138 0
58 135 138 0
-58 -135 138 0
137 -139 0
-109 -139 0
109 -137 139 0
109 -137 -140 0
-109 137 -140 0
109 137 140 0
-109 -137 140 0
139 -141 0
-116 -141 0
116 -139 141 0
116 -139 -142 0
-116 139 -142 0
116 139 142 0
-116 -139 142 0
141 -143 0
-141 143 0
-16 -141 0
16 141 0
-15 143 0
15 -143 0
-14 -143 0
14 143 0
-13 15 0
13 -15 0
-12 -15 0
12 15 0
-11 13 0
11 -13 0
-10 -13 0
10 13 0
-9 11 0
9 -11 0
-8 -11 0
8 11 0
-7 9 0
7 -9 0
-6 -9 0
6 9 0
-5 75 0
-5 108 0
5 -75 -108 0
-75 108 0
75 -108 0
4 -42 -111 0
4 -5 -42 0
4 -5 -111 0
-4 42 111 0
-4 5 42 0
-4 5 111 0
-4 42 0
-4 111 0
-4 5 0
5 42 111 0
3 -56 -115 0
3 -4 -56 0
3 -4 -115 0
-3 56 115 0
-3 4 56 0
-3 4 115 0
3 -56 0
3 -115 0
3 -4 0
-4 -56 -115 0
2 -24 -58 0
2 -3 -24 0
2 -3 -58 0
-2 24 58 0
-2 3 24 0
-2 3 58 0
2 -24 0
2 -58 0
2 -3 0
-3 -24 -58 0
1 -22 -109 0
1 -2 -22 0
1 -2 -109 0
-1 22 109 0
-1 2 22 0
-1 2 109 0
-1 22 0
-1 109 0
-1 2 0
2 22 109 0
-20 -116 0
-1 -20 0
-1 -116 0
1 20 116 0
